p cnf 68 209
a 49 13 0
e 1 2 3 4 5 6 7 8 9 10 11 12 14 15 16 17 18 19 20 21 22 23 24 25 26 27 28 29 30 31 32 33 34 35 36 37 38 39 40 41 42 43 44 45 46 47 48 50 51 52 53 54 55 56 57 58 59 60 61 62 63 64 65 66 67 68 0
-2 3 -4 0
2 -3 -4 0
-2 -3 4 0
2 3 4 0
-5 2 0
-5 -4 0
-2 4 5 0
1 5 -6 0
-1 -5 -6 0
1 -5 6 0
-1 5 6 0
7 2 -8 0
-7 -2 -8 0
7 -2 8 0
-7 2 8 0
9 -6 0
9 -8 0
6 8 -9 0
11 -3 0
11 10 0
3 -10 -11 0
-13 10 0
-13 12 0
-10 -12 13 0
-14 11 0
-14 13 0
-11 -13 14 0
15 9 0
15 -14 0
-9 14 -15 0
-16 8 -17 0
16 -8 -17 0
-16 -8 17 0
16 8 17 0
19 -10 0
19 -18 0
10 18 -19 0
20 -17 0
20 -19 0
17 19 -20 0
-21 -16 0
-21 -19 0
16 19 21 0
8 2 -22 0
-8 -2 -22 0
8 -2 22 0
-8 2 22 0
-21 -22 -23 0
21 22 -23 0
-21 22 23 0
21 -22 23 0
-24 -20 0
-24 23 0
20 -23 24 0
26 24 0
26 -25 0
-24 25 -26 0
-15 -26 -27 0
15 26 -27 0
-15 26 27 0
15 -26 27 0
-28 -10 0
-28 -6 0
10 6 28 0
-29 -28 0
-29 16 0
28 -16 29 0
-30 7 0
-30 1 0
-7 -1 30 0
-30 -20 -31 0
30 20 -31 0
-30 20 31 0
30 -20 31 0
32 12 0
32 31 0
-12 -31 -32 0
33 -29 0
33 32 0
29 -32 -33 0
-33 32 -34 0
33 -32 -34 0
-33 -32 34 0
33 32 34 0
-35 -7 0
-35 13 0
7 -13 35 0
34 -35 -36 0
-34 35 -36 0
34 35 36 0
-34 -35 36 0
37 27 0
37 36 0
-27 -36 -37 0
38 -12 -39 0
-38 12 -39 0
38 12 39 0
-38 -12 39 0
-40 -8 0
-40 39 0
8 -39 40 0
-41 -1 0
-41 40 0
1 -40 41 0
-42 30 0
-42 -12 0
-30 12 42 0
43 7 0
43 42 0
-7 -42 -43 0
44 -2 0
44 2 0
-45 43 0
-45 44 0
-43 -44 45 0
-46 41 0
-46 -45 0
-41 45 46 0
7 -19 -47 0
-7 19 -47 0
7 19 47 0
-7 -19 47 0
48 -31 0
48 16 0
31 -16 -48 0
49 -47 0
49 -48 0
47 48 -49 0
-50 -12 0
-50 32 0
12 -32 50 0
51 28 0
51 11 0
-28 -11 -51 0
52 -10 0
52 -12 0
10 12 -52 0
-53 -51 0
-53 -52 0
51 52 53 0
54 -50 0
54 53 0
50 -53 -54 0
-55 -49 0
-55 54 0
49 -54 55 0
-56 -20 0
-56 2 0
20 -2 56 0
57 13 0
57 -32 0
-13 32 -57 0
-58 -56 0
-58 57 0
56 -57 58 0
55 58 -59 0
-55 -58 -59 0
55 -58 59 0
-55 58 59 0
-60 -18 0
-60 -42 0
18 42 60 0
-61 -10 0
-61 -60 0
10 60 61 0
-8 12 -62 0
8 -12 -62 0
-8 -12 62 0
8 12 62 0
42 13 -63 0
-42 -13 -63 0
42 -13 63 0
-42 13 63 0
-64 62 0
-64 -63 0
-62 63 64 0
65 -61 0
65 64 0
61 -64 -65 0
66 59 0
66 65 0
-59 -65 -66 0
46 66 -67 0
-46 -66 -67 0
46 -66 67 0
-46 66 67 0
68 -37 0
68 -67 0
37 67 -68 0
4 -12 -13 -26 66 -10 -20 0
1 57 -36 -51 0
8 66 22 -67 7 -29 6 0
-36 -35 -6 -47 13 60 0
-57 -15 46 0
1 42 0
-37 -14 -44 -64 -30 0
62 -7 -48 2 43 0
1 20 -67 0
30 17 21 0
-2 -17 57 -37 -15 29 0
65 -35 -51 38 4 0
-37 12 -10 0
33 -22 50 31 -65 11 -1 0
-47 -57 -9 -25 -16 -20 -56 0
35 -9 52 24 -57 66 6 -36 0
-54 -7 -62 -30 58 -53 0
2 -28 14 -35 26 -30 -37 -41 0
35 68 -20 14 -13 57 0
68 0
